
******************************************************************************
This program contains Ipopt, a library for large-scale nonlinear optimization.
 Ipopt is released as open source code under the Eclipse Public License (EPL).
         For more information visit http://projects.coin-or.org/Ipopt
******************************************************************************

This is Ipopt version 3.12.6, running with linear solver ma57.

Number of nonzeros in equality constraint Jacobian...:        4
Number of nonzeros in inequality constraint Jacobian.:        0
Number of nonzeros in Lagrangian Hessian.............:        7

Total number of variables............................:        4
                     variables with only lower bounds:        0
                variables with lower and upper bounds:        4
                     variables with only upper bounds:        0
Total number of equality constraints.................:        2
Total number of inequality constraints...............:        0
        inequality constraints with only lower bounds:        0
   inequality constraints with lower and upper bounds:        0
        inequality constraints with only upper bounds:        0

iter    objective    inf_pr   inf_du lg(mu)  ||d||  lg(rg) alpha_du alpha_pr  ls
   0 -6.3135268e+02 6.83e-01 6.59e+01  -1.0 0.00e+00    -  0.00e+00 0.00e+00   0
   1 -9.0143477e+02 3.51e-02 2.18e+03  -1.0 1.09e+00   2.0 7.06e-01 9.09e-01f  1
   2 -9.3457916e+02 5.96e-03 8.69e+02  -1.0 1.64e-01   1.5 9.82e-01 1.00e+00f  1
   3 -9.5738352e+02 1.21e-01 4.28e+02  -1.0 1.76e+00    -  1.00e+00 4.01e-01f  1
   4 -9.5383848e+02 1.21e-03 1.41e+02  -1.0 1.01e-01    -  1.96e-01 1.00e+00h  1
   5 -9.5711124e+02 1.54e-02 5.21e+01  -1.0 2.84e-01    -  1.00e+00 1.00e+00f  1
   6 -9.5693900e+02 4.46e-03 1.34e+01  -1.0 1.41e-01    -  1.00e+00 1.00e+00h  1
   7 -9.5671315e+02 1.47e-04 9.69e-01  -1.0 2.50e-02    -  1.00e+00 1.00e+00h  1
   8 -9.5671767e+02 9.67e-05 6.27e-02  -1.7 2.03e-02    -  1.00e+00 1.00e+00h  1
   9 -9.5671325e+02 6.89e-06 5.84e-03  -2.5 5.42e-03    -  1.00e+00 1.00e+00h  1
iter    objective    inf_pr   inf_du lg(mu)  ||d||  lg(rg) alpha_du alpha_pr  ls
  10 -9.5671289e+02 1.47e-07 1.34e-04  -3.8 7.92e-04    -  1.00e+00 1.00e+00h  1
  11 -9.5671289e+02 4.35e-10 4.12e-07  -5.7 4.31e-05    -  1.00e+00 1.00e+00h  1
  12 -9.5671289e+02 6.53e-14 6.85e-11  -8.6 5.28e-07    -  1.00e+00 1.00e+00h  1

Number of Iterations....: 12

                                   (scaled)                 (unscaled)
Objective...............:  -2.3957120424241120e+02   -9.5671288665002919e+02
Dual infeasibility......:   6.8522229370508827e-11    2.7363931348953640e-10
Constraint violation....:   6.5308869423574833e-14    6.5308869423574833e-14
Complementarity.........:   2.5075443610140599e-09    1.0013724360634449e-08
Overall NLP error.......:   2.5075443610140599e-09    1.0013724360634449e-08


Number of objective function evaluations             = 13
Number of objective gradient evaluations             = 13
Number of equality constraint evaluations            = 13
Number of inequality constraint evaluations          = 0
Number of equality constraint Jacobian evaluations   = 13
Number of inequality constraint Jacobian evaluations = 0
Number of Lagrangian Hessian evaluations             = 12
Total CPU secs in IPOPT (w/o function evaluations)   =      0.003
Total CPU secs in NLP function evaluations           =      0.000

EXIT: Optimal Solution Found.
Note: The following floating-point exceptions are signalling: IEEE_INVALID_FLAG IEEE_DIVIDE_BY_ZERO

************************ CUTEst statistics ************************


 Package used            :  IPOPT
 Problem                 :  HS69      
 # variables             =               4
 # constraints           =               2
 # objective functions   =        0.2700000E+02
 # objective gradients   =        0.1400000E+02
 # objective Hessians    =        0.1300000E+02
 # Hessian-vector prdct  =        0.0000000E+00
 # constraints functions =        0.2800000E+02
 # constraints gradients =        0.1500000E+02
 # constraints Hessians  =        0.1300000E+02
 Exit code               =               0
 Final f                 =  -0.9567129E+03
 Set up time             =            0.00 seconds
 Solve time              =            0.02 seconds


******************************************************************

System Time =       0.0049999999 s.
